c FILE /home/rafael/Documents/HappySet/MIHS/inputs/happygen/output/graph_d_regular_k2_p0.4_v50_20241127_082549.txt
c SOURCE This is a d-regular graph formed for the happy graph colouring problem.
c DESCRIPTION It was generated using the problem generator of Rhyd Lewis
c
c GRAPH STATS
c Seed                             = -1257752553
c Number of Nodes                  = 50
c Number of colours k              = 2
c Number of pre-assignments        = 20
c Degree of all vertices           = 6
c Density                          = 0.122449
c 
c The degrees of nodes 1 to 50, respectively, are as follows 
c [6, 6, 6, 6, 6, 6, 6, 6, 6, 6, 6, 6, 6, 6, 6, 6, 6, 6, 6, 6, 6, 6, 6, 6, 6, 6, 
c  6, 6, 6, 6, 6, 6, 6, 6, 6, 6, 6, 6, 6, 6, 6, 6, 6, 6, 6, 6, 6, 6, 6, 6] 
c  
p edge 50 150 2
e 1 14
e 1 26
e 1 27
e 1 34
e 1 36
e 1 41
e 2 8
e 2 14
e 2 18
e 2 26
e 2 38
e 2 42
e 3 12
e 3 20
e 3 22
e 3 32
e 3 46
e 3 47
e 4 7
e 4 20
e 4 25
e 4 43
e 4 46
e 4 47
e 5 11
e 5 12
e 5 16
e 5 30
e 5 36
e 5 42
e 6 8
e 6 10
e 6 15
e 6 21
e 6 22
e 6 27
e 7 19
e 7 25
e 7 40
e 7 44
e 7 46
e 8 24
e 8 30
e 8 39
e 8 48
e 9 20
e 9 22
e 9 31
e 9 45
e 9 47
e 9 50
e 10 15
e 10 17
e 10 35
e 10 38
e 10 39
e 11 20
e 11 28
e 11 34
e 11 37
e 11 44
e 12 15
e 12 16
e 12 41
e 12 49
e 13 15
e 13 21
e 13 33
e 13 39
e 13 47
e 13 50
e 14 18
e 14 35
e 14 40
e 14 49
e 15 24
e 15 27
e 16 21
e 16 26
e 16 29
e 16 48
e 17 28
e 17 30
e 17 35
e 17 40
e 17 42
e 18 19
e 18 24
e 18 43
e 18 49
e 19 22
e 19 28
e 19 31
e 19 48
e 20 39
e 20 41
e 21 23
e 21 36
e 21 45
e 22 23
e 22 43
e 23 24
e 23 28
e 23 34
e 23 45
e 24 29
e 24 32
e 25 43
e 25 46
e 25 47
e 25 50
e 26 27
e 26 41
e 26 49
e 27 37
e 27 38
e 28 30
e 28 32
e 29 30
e 29 37
e 29 40
e 29 44
e 30 34
e 31 33
e 31 40
e 31 41
e 31 44
e 32 36
e 32 45
e 32 46
e 33 34
e 33 37
e 33 48
e 33 50
e 34 42
e 35 40
e 35 49
e 35 50
e 36 38
e 36 39
e 37 48
e 37 49
e 38 46
e 38 50
e 39 43
e 41 42
e 42 44
e 43 45
e 44 48
e 45 47
n 3 2
n 5 1
n 6 2
n 9 2
n 13 2
n 14 2
n 19 2
n 20 2
n 21 2
n 26 2
n 30 1
n 34 1
n 38 1
n 39 2
n 40 2
n 41 2
n 43 2
n 44 2
n 47 2
n 49 2
